10J3M/DAT/10J3MNLR-1.dat
10 3
25.3484 28.4137
24.2555 10.8033
38.0745 23.9296
25.3622 36.0772
23.2222 47.7506
33.9485 34.5417
14.9689 41.0459
19.3852 34.2614
23.373 20.9742
23.542 7.5204
95.106