10J3M/SOL/10J3MNLR-1.sol
solution status: optimal solution found
objective value:                     67.3463561168374
x#1#1                                               1 	(obj:0)
x#2#2                                               1 	(obj:0)
x#3#1                               0.700274195745345 	(obj:0)
x#3#2                               0.254055752466624 	(obj:0)
x#3#3                              0.0456700517880308 	(obj:0)
x#4#1                               0.617116994435822 	(obj:0)
x#4#3                               0.382883005564178 	(obj:0)
x#5#3                               0.999997817156278 	(obj:0)
x#6#2                                               1 	(obj:0)
x#7#2                               0.282356725117129 	(obj:0)
x#7#3                               0.717643274882871 	(obj:0)
x#8#3                                               1 	(obj:0)
x#9#1                                               1 	(obj:0)
x#10#2                                              1 	(obj:0)
z                                    67.3463561168374 	(obj:1)
